row1 0 0 0 0 0 19 19 19 19 19 19 19 19 19 19 19 19 19 19 19 19 19 19 19 19 19 19 19 19 19 19 19 19 19 19 19 19 19 19 19 19 19 19 19 19 19 19 19 19 19 19 19 19 19 19 19 
row2 0 0 0 0 0 19 19 19 19 19 19 19 25 25 25 25 25 44 44 44 44 44 44 44 44 44 44 44 44 44 44 44 44 44 44 44 44 44 44 44 44 44 44 44 44 44 44 44 44 44 44 44 44 44 44 44 
row3 0 0 0 0 0 19 19 19 19 19 19 19 25 25 28 28 28 44 44 47 47 47 47 47 47 47 53 53 53 53 53 72 72 72 72 72 72 72 72 72 72 72 72 72 72 72 72 72 72 72 72 72 72 72 72 72 
row4 0 0 0 0 0 19 19 19 19 19 19 19 25 25 28 28 28 44 44 47 47 47 47 47 47 50 53 53 53 53 69 72 72 72 72 72 72 72 72 78 78 78 78 78 97 97 97 97 97 97 97 97 97 97 97 97 
row5 0 0 0 0 0 19 19 19 19 19 19 19 25 25 36 36 36 44 44 47 47 47 47 47 47 50 61 61 64 64 69 72 72 72 72 72 72 72 72 86 89 89 89 89 97 97 97 97 97 97 97 97 97 114 114 114 
row6 0 0 0 0 0 19 19 19 19 19 19 19 25 25 36 36 36 44 44 47 47 47 47 47 47 50 61 61 64 64 69 72 72 72 72 72 72 72 72 86 89 89 89 89 97 97 97 97 97 97 97 97 104 114 114 114 
row7 0 0 0 0 0 19 19 19 19 19 19 19 25 25 36 36 36 44 44 47 47 47 47 47 47 50 61 61 64 64 69 72 72 72 72 72 72 72 75 86 89 89 89 89 97 97 97 97 97 97 100 100 104 114 114 114 
row8 0 0 0 0 0 19 19 19 19 19 19 19 25 25 36 36 36 44 44 47 47 47 47 47 47 50 61 61 64 64 69 72 72 72 72 72 72 72 75 86 89 89 89 89 97 97 97 97 97 97 100 100 104 114 114 114 114 
